
Gurobi 6.5.2 (win64) logging started 07/24/16 17:26:08


Gurobi 6.5.2 (win64) logging started 07/24/16 17:26:08

Optimize a model with 752 rows, 161 columns and 1812 nonzeros
Coefficient statistics:
  Matrix range    [1e+00, 4e+02]
  Objective range [2e+00, 4e+02]
  Bounds range    [1e+00, 1e+00]
  RHS range       [1e+00, 1e+03]
Presolve removed 670 rows and 26 columns
Presolve time: 0.00s
Presolved: 82 rows, 135 columns, 596 nonzeros
Variable types: 0 continuous, 135 integer (135 binary)

Root relaxation: objective 1.272000e+03, 42 iterations, 0.00 seconds

    Nodes    |    Current Node    |     Objective Bounds      |     Work
 Expl Unexpl |  Obj  Depth IntInf | Incumbent    BestBd   Gap | It/Node Time

*    0     0               0    1272.0000000 1272.00000  0.00%     -    0s

Explored 0 nodes (42 simplex iterations) in 0.00 seconds
Thread count was 8 (of 8 available processors)

Optimal solution found (tolerance 1.00e-04)
Best objective 1.272000000000e+03, best bound 1.272000000000e+03, gap 0.0%

Wrote requested result file 'H1\instance8\\Results8SG_Sol4.lp'

